(set-logic QF_S)
(declare-fun var0 () String)
(declare-fun var1 () Int)
(declare-fun var2 () String)
(declare-fun var3 () String)
(declare-fun var4 () String)
(declare-fun var5 () Int)
(declare-fun var6 () Int)
(declare-fun var7 () Int)
(assert (str.in.re (str.at (str.at var0 var1) (str.to.int var2)) (re.+ re.allchar)))
(assert (str.contains (str.replace "vOB7GLe8-)" var3 var4) (str.substr var0 var5 var6)))
(assert (<= var7 var6))
(assert (<= var5 var5))
(check-sat)